unsat
(:elim-unconstrained  1
 :max-memory          18.53
 :memory              18.43
 :nlsat-arith-var     9
 :nlsat-atoms         48
 :nlsat-bool-var      1
 :nlsat-clauses       41
 :nlsat-conflicts     8
 :nlsat-propagations  50
 :nlsat-stages        12
 :num-allocs          60659
 :rlimit-count        5922
 :solve-eqs-elim-vars 1
 :solve-eqs-steps     1
 :time                0.01
 :total-time          0.02)
